data/lp_files/pEFS/57_9.lp
\ Model foo
\ LP format - for model browsing. Use MPS format to capture full model detail.
Minimize
  z
Subject To
 allocateEach[1]: x[1,1] + x[2,1] + x[3,1] = 1
 allocateEach[2]: x[1,2] + x[2,2] + x[3,2] = 1
 allocateEach[3]: x[1,3] + x[2,3] + x[3,3] = 1
 allocateEach[4]: x[1,4] + x[2,4] + x[3,4] = 1
 allocateEach[5]: x[1,5] + x[2,5] + x[3,5] = 1
 allocateEach[6]: x[1,6] + x[2,6] + x[3,6] = 1
 allocateEach[7]: x[1,7] + x[2,7] + x[3,7] = 1
 allocateEach[8]: x[1,8] + x[2,8] + x[3,8] = 1
 allocateEach[9]: x[1,9] + x[2,9] + x[3,9] = 1
 allocateEach[10]: x[1,10] + x[2,10] + x[3,10] = 1
 allocateEach[11]: x[1,11] + x[2,11] + x[3,11] = 1
 allocateEach[12]: x[1,12] + x[2,12] + x[3,12] = 1
 allocateEach[13]: x[1,13] + x[2,13] + x[3,13] = 1
 allocateEach[14]: x[1,14] + x[2,14] + x[3,14] = 1
 allocateEach[15]: x[1,15] + x[2,15] + x[3,15] = 1
 allocateEach[16]: x[1,16] + x[2,16] + x[3,16] = 1
 allocateEach[17]: x[1,17] + x[2,17] + x[3,17] = 1
 allocateAllCash: cashProportion[1] + cashProportion[2] + cashProportion[3]
   = 1
 findWorstP[1,2]: z + 0.103270579244679 cashProportion[1]
   - 0.103270579244679 cashProportion[2] + 0.00802412400731156 x[1,1]
   + 0.0916010037900302 x[1,2] + 0.0092633709582477 x[1,3]
   + 0.0783100802412401 x[1,4] + 0.0323236913035845 x[1,5]
   + 0.0686233 x[1,6] + 0.0882963452542005 x[1,7]
   + 0.1022895087418545 x[1,8] + 0.09393491888096 x[1,9]
   + 0.0223890615802464 x[1,10] + 0.0428676174444662 x[1,11]
   + 0.0832360868712113 x[1,12] + 0.0849813596604463 x[1,13]
   + 0.0403478153108961 x[1,14] + 0.0198176241570539 x[1,15]
   + 0.0294837503743558 x[1,16] + 9.3976227112657867e-04 x[1,17]
   - 0.00802412400731156 x[2,1] - 0.0916010037900302 x[2,2]
   - 0.0092633709582477 x[2,3] - 0.0783100802412401 x[2,4]
   - 0.0323236913035845 x[2,5] - 0.0686233 x[2,6]
   - 0.0882963452542005 x[2,7] - 0.1022895087418545 x[2,8]
   - 0.09393491888096 x[2,9] - 0.0223890615802464 x[2,10]
   - 0.0428676174444662 x[2,11] - 0.0832360868712113 x[2,12]
   - 0.0849813596604463 x[2,13] - 0.0403478153108961 x[2,14]
   - 0.0198176241570539 x[2,15] - 0.0294837503743558 x[2,16]
   - 9.3976227112657867e-04 x[2,17] >= 0
 findWorstP[1,3]: z + 0.103270579244679 cashProportion[1]
   - 0.103270579244679 cashProportion[3] + 0.00802412400731156 x[1,1]
   + 0.0916010037900302 x[1,2] + 0.0092633709582477 x[1,3]
   + 0.0783100802412401 x[1,4] + 0.0323236913035845 x[1,5]
   + 0.0686233 x[1,6] + 0.0882963452542005 x[1,7]
   + 0.1022895087418545 x[1,8] + 0.09393491888096 x[1,9]
   + 0.0223890615802464 x[1,10] + 0.0428676174444662 x[1,11]
   + 0.0832360868712113 x[1,12] + 0.0849813596604463 x[1,13]
   + 0.0403478153108961 x[1,14] + 0.0198176241570539 x[1,15]
   + 0.0294837503743558 x[1,16] + 9.3976227112657867e-04 x[1,17]
   - 0.00802412400731156 x[3,1] - 0.0916010037900302 x[3,2]
   - 0.0092633709582477 x[3,3] - 0.0783100802412401 x[3,4]
   - 0.0323236913035845 x[3,5] - 0.0686233 x[3,6]
   - 0.0882963452542005 x[3,7] - 0.1022895087418545 x[3,8]
   - 0.09393491888096 x[3,9] - 0.0223890615802464 x[3,10]
   - 0.0428676174444662 x[3,11] - 0.0832360868712113 x[3,12]
   - 0.0849813596604463 x[3,13] - 0.0403478153108961 x[3,14]
   - 0.0198176241570539 x[3,15] - 0.0294837503743558 x[3,16]
   - 9.3976227112657867e-04 x[3,17] >= 0
 findWorstP[2,1]: z - 0.0998901208670463 cashProportion[1]
   + 0.0998901208670463 cashProportion[2] - 0.0327839376685646 x[1,1]
   - 0.0914593946658675 x[1,2] - 0.0816401957846369 x[1,3]
   - 0.0993007691539307 x[1,4] - 0.0132953750874039 x[1,5]
   - 0.0229048047148137 x[1,6] - 0.00533413245430027 x[1,7]
   - 0.0104285286185196 x[1,8] - 0.0983518130056937 x[1,9]
   - 0.0773549095994406 x[1,10] - 0.0567076216162222 x[1,11]
   - 0.0267106183198482 x[1,12] - 0.0503046648686445 x[1,13]
   - 0.00398561582259515 x[1,14] - 0.0967835381080811 x[1,15]
   - 0.0745080411547298 x[1,16] - 0.0582559184896614 x[1,17]
   + 0.0327839376685646 x[2,1] + 0.0914593946658675 x[2,2]
   + 0.0816401957846369 x[2,3] + 0.0993007691539307 x[2,4]
   + 0.0132953750874039 x[2,5] + 0.0229048047148137 x[2,6]
   + 0.00533413245430027 x[2,7] + 0.0104285286185196 x[2,8]
   + 0.0983518130056937 x[2,9] + 0.0773549095994406 x[2,10]
   + 0.0567076216162222 x[2,11] + 0.0267106183198482 x[2,12]
   + 0.0503046648686445 x[2,13] + 0.00398561582259515 x[2,14]
   + 0.0967835381080811 x[2,15] + 0.0745080411547298 x[2,16]
   + 0.0582559184896614 x[2,17] >= 0
 findWorstP[2,3]: z + 0.0998901208670463 cashProportion[2]
   - 0.0998901208670463 cashProportion[3] + 0.0327839376685646 x[2,1]
   + 0.0914593946658675 x[2,2] + 0.0816401957846369 x[2,3]
   + 0.0993007691539307 x[2,4] + 0.0132953750874039 x[2,5]
   + 0.0229048047148137 x[2,6] + 0.00533413245430027 x[2,7]
   + 0.0104285286185196 x[2,8] + 0.0983518130056937 x[2,9]
   + 0.0773549095994406 x[2,10] + 0.0567076216162222 x[2,11]
   + 0.0267106183198482 x[2,12] + 0.0503046648686445 x[2,13]
   + 0.00398561582259515 x[2,14] + 0.0967835381080811 x[2,15]
   + 0.0745080411547298 x[2,16] + 0.0582559184896614 x[2,17]
   - 0.0327839376685646 x[3,1] - 0.0914593946658675 x[3,2]
   - 0.0816401957846369 x[3,3] - 0.0993007691539307 x[3,4]
   - 0.0132953750874039 x[3,5] - 0.0229048047148137 x[3,6]
   - 0.00533413245430027 x[3,7] - 0.0104285286185196 x[3,8]
   - 0.0983518130056937 x[3,9] - 0.0773549095994406 x[3,10]
   - 0.0567076216162222 x[3,11] - 0.0267106183198482 x[3,12]
   - 0.0503046648686445 x[3,13] - 0.00398561582259515 x[3,14]
   - 0.0967835381080811 x[3,15] - 0.0745080411547298 x[3,16]
   - 0.0582559184896614 x[3,17] >= 0
 findWorstP[3,1]: z - 0.0919320438331985 cashProportion[1]
   + 0.0919320438331985 cashProportion[3] - 0.0822515996175627 x[1,1]
   - 0.0760461866588218 x[1,2] - 0.0917022137236155 x[1,3]
   - 0.014056409502096 x[1,4] - 0.0367452379201294 x[1,5]
   - 0.0809185849819813 x[1,6] - 0.0332518202544679 x[1,7]
   - 0.0691604765757152 x[1,8] - 0.0702912407148636 x[1,9]
   - 0.0807439140986982 x[1,10] - 0.0171177465617416 x[1,11]
   - 0.0221556225638008 x[1,12] - 0.0611899683753769 x[1,13]
   - 0.0402938148120909 x[1,14] - 0.0158123115393101 x[1,15]
   - 0.0892016621313525 x[1,16] - 0.0271291461351769 x[1,17]
   + 0.0822515996175627 x[3,1] + 0.0760461866588218 x[3,2]
   + 0.0917022137236155 x[3,3] + 0.014056409502096 x[3,4]
   + 0.0367452379201294 x[3,5] + 0.0809185849819813 x[3,6]
   + 0.0332518202544679 x[3,7] + 0.0691604765757152 x[3,8]
   + 0.0702912407148636 x[3,9] + 0.0807439140986982 x[3,10]
   + 0.0171177465617416 x[3,11] + 0.0221556225638008 x[3,12]
   + 0.0611899683753769 x[3,13] + 0.0402938148120909 x[3,14]
   + 0.0158123115393101 x[3,15] + 0.0892016621313525 x[3,16]
   + 0.0271291461351769 x[3,17] >= 0
 findWorstP[3,2]: z - 0.0919320438331985 cashProportion[2]
   + 0.0919320438331985 cashProportion[3] - 0.0822515996175627 x[2,1]
   - 0.0760461866588218 x[2,2] - 0.0917022137236155 x[2,3]
   - 0.014056409502096 x[2,4] - 0.0367452379201294 x[2,5]
   - 0.0809185849819813 x[2,6] - 0.0332518202544679 x[2,7]
   - 0.0691604765757152 x[2,8] - 0.0702912407148636 x[2,9]
   - 0.0807439140986982 x[2,10] - 0.0171177465617416 x[2,11]
   - 0.0221556225638008 x[2,12] - 0.0611899683753769 x[2,13]
   - 0.0402938148120909 x[2,14] - 0.0158123115393101 x[2,15]
   - 0.0892016621313525 x[2,16] - 0.0271291461351769 x[2,17]
   + 0.0822515996175627 x[3,1] + 0.0760461866588218 x[3,2]
   + 0.0917022137236155 x[3,3] + 0.014056409502096 x[3,4]
   + 0.0367452379201294 x[3,5] + 0.0809185849819813 x[3,6]
   + 0.0332518202544679 x[3,7] + 0.0691604765757152 x[3,8]
   + 0.0702912407148636 x[3,9] + 0.0807439140986982 x[3,10]
   + 0.0171177465617416 x[3,11] + 0.0221556225638008 x[3,12]
   + 0.0611899683753769 x[3,13] + 0.0402938148120909 x[3,14]
   + 0.0158123115393101 x[3,15] + 0.0892016621313525 x[3,16]
   + 0.0271291461351769 x[3,17] >= 0
Bounds
 z <= 1
 -infinity <= cashProportion[1] <= 1
 -infinity <= cashProportion[2] <= 1
 -infinity <= cashProportion[3] <= 1
Binaries
 x[1,1] x[1,2] x[1,3] x[1,4] x[1,5] x[1,6] x[1,7] x[1,8] x[1,9] x[1,10]
 x[1,11] x[1,12] x[1,13] x[1,14] x[1,15] x[1,16] x[1,17] x[2,1] x[2,2]
 x[2,3] x[2,4] x[2,5] x[2,6] x[2,7] x[2,8] x[2,9] x[2,10] x[2,11] x[2,12]
 x[2,13] x[2,14] x[2,15] x[2,16] x[2,17] x[3,1] x[3,2] x[3,3] x[3,4] x[3,5]
 x[3,6] x[3,7] x[3,8] x[3,9] x[3,10] x[3,11] x[3,12] x[3,13] x[3,14]
 x[3,15] x[3,16] x[3,17]
End
