data/mps_files/q3/57_9.mps
NAME foo
ROWS
 N  OBJ
 E  allocateEach[1]
 E  allocateEach[2]
 E  allocateEach[3]
 E  allocateEach[4]
 E  allocateEach[5]
 E  allocateEach[6]
 E  allocateEach[7]
 E  allocateEach[8]
 E  allocateEach[9]
 E  allocateEach[10]
 E  allocateEach[11]
 E  allocateEach[12]
 E  allocateEach[13]
 E  allocateEach[14]
 E  allocateEach[15]
 E  allocateEach[16]
 E  allocateEach[17]
 E  allocateAllCash
 G  findWorstP[1,2]
 G  findWorstP[1,3]
 G  findWorstP[2,1]
 G  findWorstP[2,3]
 G  findWorstP[3,1]
 G  findWorstP[3,2]
COLUMNS
    z         OBJ       1
    z         findWorstP[1,2]  1
    z         findWorstP[1,3]  1
    z         findWorstP[2,1]  1
    z         findWorstP[2,3]  1
    z         findWorstP[3,1]  1
    z         findWorstP[3,2]  1
    cashProportion[1]  allocateAllCash  1
    cashProportion[1]  findWorstP[1,2]  0.103270579244679
    cashProportion[1]  findWorstP[1,3]  0.103270579244679
    cashProportion[1]  findWorstP[2,1]  -9.9890120867046281e-02
    cashProportion[1]  findWorstP[3,1]  -0.0919320438331985
    cashProportion[2]  allocateAllCash  1
    cashProportion[2]  findWorstP[1,2]  -0.103270579244679
    cashProportion[2]  findWorstP[2,1]  9.9890120867046281e-02
    cashProportion[2]  findWorstP[2,3]  9.9890120867046281e-02
    cashProportion[2]  findWorstP[3,2]  -0.0919320438331985
    cashProportion[3]  allocateAllCash  1
    cashProportion[3]  findWorstP[1,3]  -0.103270579244679
    cashProportion[3]  findWorstP[2,3]  -9.9890120867046281e-02
    cashProportion[3]  findWorstP[3,1]  0.0919320438331985
    cashProportion[3]  findWorstP[3,2]  0.0919320438331985
    MARKER    'MARKER'                 'INTORG'
    x[1,1]    allocateEach[1]  1
    x[1,1]    findWorstP[1,2]  8.0241240073115564e-03
    x[1,1]    findWorstP[1,3]  8.0241240073115564e-03
    x[1,1]    findWorstP[2,1]  -3.2783937668564578e-02
    x[1,1]    findWorstP[3,1]  -8.2251599617562690e-02
    x[1,2]    allocateEach[2]  1
    x[1,2]    findWorstP[1,2]  9.1601003790030250e-02
    x[1,2]    findWorstP[1,3]  9.1601003790030250e-02
    x[1,2]    findWorstP[2,1]  -9.1459394665867541e-02
    x[1,2]    findWorstP[3,1]  -7.6046186658821791e-02
    x[1,3]    allocateEach[3]  1
    x[1,3]    findWorstP[1,2]  9.2633709582477033e-03
    x[1,3]    findWorstP[1,3]  9.2633709582477033e-03
    x[1,3]    findWorstP[2,1]  -8.1640195784636910e-02
    x[1,3]    findWorstP[3,1]  -9.1702213723615492e-02
    x[1,4]    allocateEach[4]  1
    x[1,4]    findWorstP[1,2]  7.8310080241240060e-02
    x[1,4]    findWorstP[1,3]  7.8310080241240060e-02
    x[1,4]    findWorstP[2,1]  -9.9300769153930685e-02
    x[1,4]    findWorstP[3,1]  -1.4056409502096049e-02
    x[1,5]    allocateEach[5]  1
    x[1,5]    findWorstP[1,2]  3.2323691303584520e-02
    x[1,5]    findWorstP[1,3]  3.2323691303584520e-02
    x[1,5]    findWorstP[2,1]  -1.3295375087403857e-02
    x[1,5]    findWorstP[3,1]  -3.6745237920129438e-02
    x[1,6]    allocateEach[6]  1
    x[1,6]    findWorstP[1,2]  6.8623299908089172e-02
    x[1,6]    findWorstP[1,3]  6.8623299908089172e-02
    x[1,6]    findWorstP[2,1]  -2.2904804714813706e-02
    x[1,6]    findWorstP[3,1]  -0.0809185849819813
    x[1,7]    allocateEach[7]  1
    x[1,7]    findWorstP[1,2]  8.8296345254200520e-02
    x[1,7]    findWorstP[1,3]  8.8296345254200520e-02
    x[1,7]    findWorstP[2,1]  -0.00533413245430027
    x[1,7]    findWorstP[3,1]  -3.3251820254467893e-02
    x[1,8]    allocateEach[8]  1
    x[1,8]    findWorstP[1,2]  1.0228950874185452e-01
    x[1,8]    findWorstP[1,3]  1.0228950874185452e-01
    x[1,8]    findWorstP[2,1]  -1.0428528618519629e-02
    x[1,8]    findWorstP[3,1]  -6.9160476575715224e-02
    x[1,9]    allocateEach[9]  1
    x[1,9]    findWorstP[1,2]  9.3934918880959992e-02
    x[1,9]    findWorstP[1,3]  9.3934918880959992e-02
    x[1,9]    findWorstP[2,1]  -9.8351813005693747e-02
    x[1,9]    findWorstP[3,1]  -7.0291240714863562e-02
    x[1,10]   allocateEach[10]  1
    x[1,10]   findWorstP[1,2]  0.0223890615802464
    x[1,10]   findWorstP[1,3]  0.0223890615802464
    x[1,10]   findWorstP[2,1]  -7.7354909599440622e-02
    x[1,10]   findWorstP[3,1]  -8.0743914098698230e-02
    x[1,11]   allocateEach[11]  1
    x[1,11]   findWorstP[1,2]  4.2867617444466245e-02
    x[1,11]   findWorstP[1,3]  4.2867617444466245e-02
    x[1,11]   findWorstP[2,1]  -5.6707621616222156e-02
    x[1,11]   findWorstP[3,1]  -1.7117746561741559e-02
    x[1,12]   allocateEach[12]  1
    x[1,12]   findWorstP[1,2]  8.3236086871211257e-02
    x[1,12]   findWorstP[1,3]  8.3236086871211257e-02
    x[1,12]   findWorstP[2,1]  -2.6710618319848171e-02
    x[1,12]   findWorstP[3,1]  -2.2155622563800836e-02
    x[1,13]   allocateEach[13]  1
    x[1,13]   findWorstP[1,2]  8.4981359660446329e-02
    x[1,13]   findWorstP[1,3]  8.4981359660446329e-02
    x[1,13]   findWorstP[2,1]  -5.0304664868644496e-02
    x[1,13]   findWorstP[3,1]  -6.1189968375376907e-02
    x[1,14]   allocateEach[14]  1
    x[1,14]   findWorstP[1,2]  4.0347815310896075e-02
    x[1,14]   findWorstP[1,3]  4.0347815310896075e-02
    x[1,14]   findWorstP[2,1]  -3.9856158225951453e-03
    x[1,14]   findWorstP[3,1]  -0.0402938148120909
    x[1,15]   allocateEach[15]  1
    x[1,15]   findWorstP[1,2]  1.9817624157053893e-02
    x[1,15]   findWorstP[1,3]  1.9817624157053893e-02
    x[1,15]   findWorstP[2,1]  -9.6783538108081116e-02
    x[1,15]   findWorstP[3,1]  -1.5812311539310137e-02
    x[1,16]   allocateEach[16]  1
    x[1,16]   findWorstP[1,2]  2.9483750374355844e-02
    x[1,16]   findWorstP[1,3]  2.9483750374355844e-02
    x[1,16]   findWorstP[2,1]  -0.0745080411547298
    x[1,16]   findWorstP[3,1]  -0.0892016621313525
    x[1,17]   allocateEach[17]  1
    x[1,17]   findWorstP[1,2]  9.3976227112657867e-04
    x[1,17]   findWorstP[1,3]  9.3976227112657867e-04
    x[1,17]   findWorstP[2,1]  -5.8255918489661378e-02
    x[1,17]   findWorstP[3,1]  -2.7129146135176870e-02
    x[2,1]    allocateEach[1]  1
    x[2,1]    findWorstP[1,2]  -8.0241240073115564e-03
    x[2,1]    findWorstP[2,1]  3.2783937668564578e-02
    x[2,1]    findWorstP[2,3]  3.2783937668564578e-02
    x[2,1]    findWorstP[3,2]  -8.2251599617562690e-02
    x[2,2]    allocateEach[2]  1
    x[2,2]    findWorstP[1,2]  -9.1601003790030250e-02
    x[2,2]    findWorstP[2,1]  9.1459394665867541e-02
    x[2,2]    findWorstP[2,3]  9.1459394665867541e-02
    x[2,2]    findWorstP[3,2]  -7.6046186658821791e-02
    x[2,3]    allocateEach[3]  1
    x[2,3]    findWorstP[1,2]  -9.2633709582477033e-03
    x[2,3]    findWorstP[2,1]  8.1640195784636910e-02
    x[2,3]    findWorstP[2,3]  8.1640195784636910e-02
    x[2,3]    findWorstP[3,2]  -9.1702213723615492e-02
    x[2,4]    allocateEach[4]  1
    x[2,4]    findWorstP[1,2]  -7.8310080241240060e-02
    x[2,4]    findWorstP[2,1]  9.9300769153930685e-02
    x[2,4]    findWorstP[2,3]  9.9300769153930685e-02
    x[2,4]    findWorstP[3,2]  -1.4056409502096049e-02
    x[2,5]    allocateEach[5]  1
    x[2,5]    findWorstP[1,2]  -3.2323691303584520e-02
    x[2,5]    findWorstP[2,1]  1.3295375087403857e-02
    x[2,5]    findWorstP[2,3]  1.3295375087403857e-02
    x[2,5]    findWorstP[3,2]  -3.6745237920129438e-02
    x[2,6]    allocateEach[6]  1
    x[2,6]    findWorstP[1,2]  -6.8623299908089172e-02
    x[2,6]    findWorstP[2,1]  2.2904804714813706e-02
    x[2,6]    findWorstP[2,3]  2.2904804714813706e-02
    x[2,6]    findWorstP[3,2]  -0.0809185849819813
    x[2,7]    allocateEach[7]  1
    x[2,7]    findWorstP[1,2]  -8.8296345254200520e-02
    x[2,7]    findWorstP[2,1]  0.00533413245430027
    x[2,7]    findWorstP[2,3]  0.00533413245430027
    x[2,7]    findWorstP[3,2]  -3.3251820254467893e-02
    x[2,8]    allocateEach[8]  1
    x[2,8]    findWorstP[1,2]  -1.0228950874185452e-01
    x[2,8]    findWorstP[2,1]  1.0428528618519629e-02
    x[2,8]    findWorstP[2,3]  1.0428528618519629e-02
    x[2,8]    findWorstP[3,2]  -6.9160476575715224e-02
    x[2,9]    allocateEach[9]  1
    x[2,9]    findWorstP[1,2]  -9.3934918880959992e-02
    x[2,9]    findWorstP[2,1]  9.8351813005693747e-02
    x[2,9]    findWorstP[2,3]  9.8351813005693747e-02
    x[2,9]    findWorstP[3,2]  -7.0291240714863562e-02
    x[2,10]   allocateEach[10]  1
    x[2,10]   findWorstP[1,2]  -0.0223890615802464
    x[2,10]   findWorstP[2,1]  7.7354909599440622e-02
    x[2,10]   findWorstP[2,3]  7.7354909599440622e-02
    x[2,10]   findWorstP[3,2]  -8.0743914098698230e-02
    x[2,11]   allocateEach[11]  1
    x[2,11]   findWorstP[1,2]  -4.2867617444466245e-02
    x[2,11]   findWorstP[2,1]  5.6707621616222156e-02
    x[2,11]   findWorstP[2,3]  5.6707621616222156e-02
    x[2,11]   findWorstP[3,2]  -1.7117746561741559e-02
    x[2,12]   allocateEach[12]  1
    x[2,12]   findWorstP[1,2]  -8.3236086871211257e-02
    x[2,12]   findWorstP[2,1]  2.6710618319848171e-02
    x[2,12]   findWorstP[2,3]  2.6710618319848171e-02
    x[2,12]   findWorstP[3,2]  -2.2155622563800836e-02
    x[2,13]   allocateEach[13]  1
    x[2,13]   findWorstP[1,2]  -8.4981359660446329e-02
    x[2,13]   findWorstP[2,1]  5.0304664868644496e-02
    x[2,13]   findWorstP[2,3]  5.0304664868644496e-02
    x[2,13]   findWorstP[3,2]  -6.1189968375376907e-02
    x[2,14]   allocateEach[14]  1
    x[2,14]   findWorstP[1,2]  -4.0347815310896075e-02
    x[2,14]   findWorstP[2,1]  3.9856158225951453e-03
    x[2,14]   findWorstP[2,3]  3.9856158225951453e-03
    x[2,14]   findWorstP[3,2]  -0.0402938148120909
    x[2,15]   allocateEach[15]  1
    x[2,15]   findWorstP[1,2]  -1.9817624157053893e-02
    x[2,15]   findWorstP[2,1]  9.6783538108081116e-02
    x[2,15]   findWorstP[2,3]  9.6783538108081116e-02
    x[2,15]   findWorstP[3,2]  -1.5812311539310137e-02
    x[2,16]   allocateEach[16]  1
    x[2,16]   findWorstP[1,2]  -2.9483750374355844e-02
    x[2,16]   findWorstP[2,1]  0.0745080411547298
    x[2,16]   findWorstP[2,3]  0.0745080411547298
    x[2,16]   findWorstP[3,2]  -0.0892016621313525
    x[2,17]   allocateEach[17]  1
    x[2,17]   findWorstP[1,2]  -9.3976227112657867e-04
    x[2,17]   findWorstP[2,1]  5.8255918489661378e-02
    x[2,17]   findWorstP[2,3]  5.8255918489661378e-02
    x[2,17]   findWorstP[3,2]  -2.7129146135176870e-02
    x[3,1]    allocateEach[1]  1
    x[3,1]    findWorstP[1,3]  -8.0241240073115564e-03
    x[3,1]    findWorstP[2,3]  -3.2783937668564578e-02
    x[3,1]    findWorstP[3,1]  8.2251599617562690e-02
    x[3,1]    findWorstP[3,2]  8.2251599617562690e-02
    x[3,2]    allocateEach[2]  1
    x[3,2]    findWorstP[1,3]  -9.1601003790030250e-02
    x[3,2]    findWorstP[2,3]  -9.1459394665867541e-02
    x[3,2]    findWorstP[3,1]  7.6046186658821791e-02
    x[3,2]    findWorstP[3,2]  7.6046186658821791e-02
    x[3,3]    allocateEach[3]  1
    x[3,3]    findWorstP[1,3]  -9.2633709582477033e-03
    x[3,3]    findWorstP[2,3]  -8.1640195784636910e-02
    x[3,3]    findWorstP[3,1]  9.1702213723615492e-02
    x[3,3]    findWorstP[3,2]  9.1702213723615492e-02
    x[3,4]    allocateEach[4]  1
    x[3,4]    findWorstP[1,3]  -7.8310080241240060e-02
    x[3,4]    findWorstP[2,3]  -9.9300769153930685e-02
    x[3,4]    findWorstP[3,1]  1.4056409502096049e-02
    x[3,4]    findWorstP[3,2]  1.4056409502096049e-02
    x[3,5]    allocateEach[5]  1
    x[3,5]    findWorstP[1,3]  -3.2323691303584520e-02
    x[3,5]    findWorstP[2,3]  -1.3295375087403857e-02
    x[3,5]    findWorstP[3,1]  3.6745237920129438e-02
    x[3,5]    findWorstP[3,2]  3.6745237920129438e-02
    x[3,6]    allocateEach[6]  1
    x[3,6]    findWorstP[1,3]  -6.8623299908089172e-02
    x[3,6]    findWorstP[2,3]  -2.2904804714813706e-02
    x[3,6]    findWorstP[3,1]  0.0809185849819813
    x[3,6]    findWorstP[3,2]  0.0809185849819813
    x[3,7]    allocateEach[7]  1
    x[3,7]    findWorstP[1,3]  -8.8296345254200520e-02
    x[3,7]    findWorstP[2,3]  -0.00533413245430027
    x[3,7]    findWorstP[3,1]  3.3251820254467893e-02
    x[3,7]    findWorstP[3,2]  3.3251820254467893e-02
    x[3,8]    allocateEach[8]  1
    x[3,8]    findWorstP[1,3]  -1.0228950874185452e-01
    x[3,8]    findWorstP[2,3]  -1.0428528618519629e-02
    x[3,8]    findWorstP[3,1]  6.9160476575715224e-02
    x[3,8]    findWorstP[3,2]  6.9160476575715224e-02
    x[3,9]    allocateEach[9]  1
    x[3,9]    findWorstP[1,3]  -9.3934918880959992e-02
    x[3,9]    findWorstP[2,3]  -9.8351813005693747e-02
    x[3,9]    findWorstP[3,1]  7.0291240714863562e-02
    x[3,9]    findWorstP[3,2]  7.0291240714863562e-02
    x[3,10]   allocateEach[10]  1
    x[3,10]   findWorstP[1,3]  -0.0223890615802464
    x[3,10]   findWorstP[2,3]  -7.7354909599440622e-02
    x[3,10]   findWorstP[3,1]  8.0743914098698230e-02
    x[3,10]   findWorstP[3,2]  8.0743914098698230e-02
    x[3,11]   allocateEach[11]  1
    x[3,11]   findWorstP[1,3]  -4.2867617444466245e-02
    x[3,11]   findWorstP[2,3]  -5.6707621616222156e-02
    x[3,11]   findWorstP[3,1]  1.7117746561741559e-02
    x[3,11]   findWorstP[3,2]  1.7117746561741559e-02
    x[3,12]   allocateEach[12]  1
    x[3,12]   findWorstP[1,3]  -8.3236086871211257e-02
    x[3,12]   findWorstP[2,3]  -2.6710618319848171e-02
    x[3,12]   findWorstP[3,1]  2.2155622563800836e-02
    x[3,12]   findWorstP[3,2]  2.2155622563800836e-02
    x[3,13]   allocateEach[13]  1
    x[3,13]   findWorstP[1,3]  -8.4981359660446329e-02
    x[3,13]   findWorstP[2,3]  -5.0304664868644496e-02
    x[3,13]   findWorstP[3,1]  6.1189968375376907e-02
    x[3,13]   findWorstP[3,2]  6.1189968375376907e-02
    x[3,14]   allocateEach[14]  1
    x[3,14]   findWorstP[1,3]  -4.0347815310896075e-02
    x[3,14]   findWorstP[2,3]  -3.9856158225951453e-03
    x[3,14]   findWorstP[3,1]  0.0402938148120909
    x[3,14]   findWorstP[3,2]  0.0402938148120909
    x[3,15]   allocateEach[15]  1
    x[3,15]   findWorstP[1,3]  -1.9817624157053893e-02
    x[3,15]   findWorstP[2,3]  -9.6783538108081116e-02
    x[3,15]   findWorstP[3,1]  1.5812311539310137e-02
    x[3,15]   findWorstP[3,2]  1.5812311539310137e-02
    x[3,16]   allocateEach[16]  1
    x[3,16]   findWorstP[1,3]  -2.9483750374355844e-02
    x[3,16]   findWorstP[2,3]  -0.0745080411547298
    x[3,16]   findWorstP[3,1]  0.0892016621313525
    x[3,16]   findWorstP[3,2]  0.0892016621313525
    x[3,17]   allocateEach[17]  1
    x[3,17]   findWorstP[1,3]  -9.3976227112657867e-04
    x[3,17]   findWorstP[2,3]  -5.8255918489661378e-02
    x[3,17]   findWorstP[3,1]  2.7129146135176870e-02
    x[3,17]   findWorstP[3,2]  2.7129146135176870e-02
    MARKER    'MARKER'                 'INTEND'
RHS
    RHS1      allocateEach[1]  1
    RHS1      allocateEach[2]  1
    RHS1      allocateEach[3]  1
    RHS1      allocateEach[4]  1
    RHS1      allocateEach[5]  1
    RHS1      allocateEach[6]  1
    RHS1      allocateEach[7]  1
    RHS1      allocateEach[8]  1
    RHS1      allocateEach[9]  1
    RHS1      allocateEach[10]  1
    RHS1      allocateEach[11]  1
    RHS1      allocateEach[12]  1
    RHS1      allocateEach[13]  1
    RHS1      allocateEach[14]  1
    RHS1      allocateEach[15]  1
    RHS1      allocateEach[16]  1
    RHS1      allocateEach[17]  1
    RHS1      allocateAllCash  1
BOUNDS
 UP BND1      z         1
 MI BND1      cashProportion[1]
 UP BND1      cashProportion[1]  1
 MI BND1      cashProportion[2]
 UP BND1      cashProportion[2]  1
 MI BND1      cashProportion[3]
 UP BND1      cashProportion[3]  1
 BV BND1      x[1,1]  
 BV BND1      x[1,2]  
 BV BND1      x[1,3]  
 BV BND1      x[1,4]  
 BV BND1      x[1,5]  
 BV BND1      x[1,6]  
 BV BND1      x[1,7]  
 BV BND1      x[1,8]  
 BV BND1      x[1,9]  
 BV BND1      x[1,10] 
 BV BND1      x[1,11] 
 BV BND1      x[1,12] 
 BV BND1      x[1,13] 
 BV BND1      x[1,14] 
 BV BND1      x[1,15] 
 BV BND1      x[1,16] 
 BV BND1      x[1,17] 
 BV BND1      x[2,1]  
 BV BND1      x[2,2]  
 BV BND1      x[2,3]  
 BV BND1      x[2,4]  
 BV BND1      x[2,5]  
 BV BND1      x[2,6]  
 BV BND1      x[2,7]  
 BV BND1      x[2,8]  
 BV BND1      x[2,9]  
 BV BND1      x[2,10] 
 BV BND1      x[2,11] 
 BV BND1      x[2,12] 
 BV BND1      x[2,13] 
 BV BND1      x[2,14] 
 BV BND1      x[2,15] 
 BV BND1      x[2,16] 
 BV BND1      x[2,17] 
 BV BND1      x[3,1]  
 BV BND1      x[3,2]  
 BV BND1      x[3,3]  
 BV BND1      x[3,4]  
 BV BND1      x[3,5]  
 BV BND1      x[3,6]  
 BV BND1      x[3,7]  
 BV BND1      x[3,8]  
 BV BND1      x[3,9]  
 BV BND1      x[3,10] 
 BV BND1      x[3,11] 
 BV BND1      x[3,12] 
 BV BND1      x[3,13] 
 BV BND1      x[3,14] 
 BV BND1      x[3,15] 
 BV BND1      x[3,16] 
 BV BND1      x[3,17] 
ENDATA
